units           metal
boundary        p p p
atom_style      atomic
read_data       datafileswap
pair_style meam
pair_coeff      * *  librarysinew.meam Sidefault4 C SiCnew.meam Sidefault4 C 
neighbor        2.0 bin
neigh_modify    delay 10
log             log
#thermo 1
thermo_style    custom  pe 
thermo_modify   line one format float %.16g
compute eng all pe/atom
dump            1 all custom 1000000 dump id type x y z c_eng
min_style       cg
min_modify      line quadratic
minimize        1.0e-16 1.0e-16 50 50
